(set-info :smt-lib-version 2.6)
(set-logic QF_BV)
(set-info :source |
 Patrice Godefroid, SAGE (systematic dynamic test generation)
 For more information: http://research.microsoft.com/en-us/um/people/pg/public_psfiles/ndss2008.pdf
|)
(set-info :category "industrial")
(set-info :status sat)
(declare-fun T2_10732 () (_ BitVec 16))
(declare-fun T4_10724 () (_ BitVec 32))
(declare-fun T4_4597 () (_ BitVec 32))
(declare-fun T2_4605 () (_ BitVec 16))
(declare-fun T1_10732 () (_ BitVec 8))
(declare-fun T1_10733 () (_ BitVec 8))
(declare-fun T1_10724 () (_ BitVec 8))
(declare-fun T1_10725 () (_ BitVec 8))
(declare-fun T1_10726 () (_ BitVec 8))
(declare-fun T1_10727 () (_ BitVec 8))
(declare-fun T1_4605 () (_ BitVec 8))
(declare-fun T1_4606 () (_ BitVec 8))
(declare-fun T1_4597 () (_ BitVec 8))
(declare-fun T1_4598 () (_ BitVec 8))
(declare-fun T1_4599 () (_ BitVec 8))
(declare-fun T1_4600 () (_ BitVec 8))
(assert (let ((?v_0 ((_ zero_extend 16) T2_10732))) (let ((?v_6 (bvadd ?v_0 (_ bv30 32))) (?v_4 ((_ zero_extend 24) (_ bv1 8)))) (let ((?v_5 (bvadd ?v_0 ?v_4)) (?v_3 (bvadd ?v_0 (_ bv1 32))) (?v_1 (bvadd ?v_0 (_ bv2 32)))) (let ((?v_2 (bvadd ?v_1 ?v_1))) (and true (= T4_4597 (bvor (bvshl (bvor (bvshl (bvor (bvshl ((_ zero_extend 24) T1_4600) (_ bv8 32)) ((_ zero_extend 24) T1_4599)) (_ bv8 32)) ((_ zero_extend 24) T1_4598)) (_ bv8 32)) ((_ zero_extend 24) T1_4597))) (= T2_4605 (bvor (bvshl ((_ zero_extend 8) T1_4606) (_ bv8 16)) ((_ zero_extend 8) T1_4605))) (= T4_10724 (bvor (bvshl (bvor (bvshl (bvor (bvshl ((_ zero_extend 24) T1_10727) (_ bv8 32)) ((_ zero_extend 24) T1_10726)) (_ bv8 32)) ((_ zero_extend 24) T1_10725)) (_ bv8 32)) ((_ zero_extend 24) T1_10724))) (= T2_10732 (bvor (bvshl ((_ zero_extend 8) T1_10733) (_ bv8 16)) ((_ zero_extend 8) T1_10732))) (bvslt (bvadd ?v_6 T4_10724) (_ bv0 32)) (not (= (bvadd (bvshl (bvsub ?v_0 (_ bv13 32)) ?v_4) (_ bv120123184 32)) (_ bv0 32))) (bvslt ?v_2 (_ bv1024 32)) (bvsle ?v_2 (_ bv32768 32)) (bvslt (_ bv0 32) ?v_2) (not (= ?v_2 (_ bv0 32))) (bvule ?v_2 (_ bv2147483647 32)) (bvule (bvadd ?v_0 (_ bv31 32)) (_ bv2114 32)) (not (= (bvsub ?v_0 (_ bv12 32)) (_ bv0 32))) (not (= ?v_3 (_ bv0 32))) (bvsle (_ bv0 32) ?v_3) (bvslt ?v_5 (_ bv1024 32)) (bvsle ?v_5 (_ bv32768 32)) (bvslt (_ bv0 32) ?v_5) (bvsle (_ bv0 32) ?v_5) (not (= ?v_5 (_ bv0 32))) (bvule ?v_5 (_ bv2147483647 32)) (not (= T4_4597 (_ bv4294967295 32))) (= ((_ zero_extend 16) T2_4605) ?v_0) (not (= ?v_0 (_ bv0 32))) (bvule ?v_0 (_ bv22 32)) (bvult (_ bv21 32) ?v_0) (bvule ?v_0 (_ bv2147483645 32)) (= (_ bv22 32) ?v_0) (bvult (_ bv0 32) ?v_0) (bvult (_ bv0 16) T2_10732) (= T4_4597 T4_10724) (= ?v_6 (_ bv52 32))))))))
(check-sat)
(exit)
